qe/outputs/qe/cbrdelay_obs_newl/T=6,eliminate=[I_0,I_1,I_2,I_3,I_4,I_5,C,B,lhs=L_5],pl=1.smt2
; benchmark generated from python API
(set-info :status unknown)
(declare-fun S_0 () Real)
(declare-fun S_2 () Real)
(declare-fun L_4 () Real)
(declare-fun A_4 () Real)
(declare-fun S_5 () Real)
(declare-fun L_5 () Real)
(declare-fun A_5 () Real)
(declare-fun L_0 () Real)
(declare-fun A_0 () Real)
(declare-fun A_1 () Real)
(declare-fun L_1 () Real)
(declare-fun S_1 () Real)
(declare-fun S_3 () Real)
(declare-fun S_4 () Real)
(declare-fun L_2 () Real)
(declare-fun A_2 () Real)
(declare-fun L_3 () Real)
(declare-fun A_3 () Real)
(assert
 (let (($x39 (>= L_0 0.0)))
 (let ((?x1571 (* 2.0 L_5)))
 (let ((?x1350 (* (- 1.0) S_0)))
 (let ((?x405 (* (- 1.0) S_2)))
 (let ((?x1463 (* (- 2.0) A_5)))
 (let ((?x1258 (* 2.0 A_1)))
 (let ((?x1218 (* (- 2.0) L_1)))
 (let ((?x13368 (* (- 2.0) L_4)))
 (let ((?x12769 (* 2.0 A_4)))
 (let (($x27494 (<= (+ ?x12769 ?x13368 ?x1218 ?x1258 ?x1463 ?x405 ?x1350 ?x1571) 0.0)))
 (let ((?x1766 (* 3.0 L_5)))
 (let ((?x2904 (* (- 2.0) S_0)))
 (let ((?x1870 (* (- 3.0) A_5)))
 (let ((?x1165 (* 3.0 A_1)))
 (let ((?x1196 (* (- 3.0) L_1)))
 (let ((?x11409 (* 2.0 S_5)))
 (let (($x8424 (<= (+ ?x11409 ?x1196 ?x1165 ?x1870 ?x2904 ?x1766) 0.0)))
 (let (($x96 (= L_5 L_4)))
 (let ((?x399 (* (- 1.0) S_1)))
 (let ((?x443 (* (- 1.0) A_5)))
 (let ((?x274 (* (- 1.0) L_1)))
 (let ((?x325 (* (- 1.0) L_4)))
 (let (($x14457 (<= (+ A_4 ?x325 ?x274 A_1 ?x443 ?x399 L_5) 0.0)))
 (let (($x2906 (<= (+ ?x1218 ?x1258 ?x1463 (* 2.0 S_3) ?x2904 ?x1571) 0.0)))
 (let ((?x4457 (* 4.0 L_5)))
 (let ((?x2074 (* (- 3.0) S_0)))
 (let ((?x4556 (* (- 4.0) A_5)))
 (let ((?x1321 (* 4.0 A_1)))
 (let ((?x1320 (* (- 4.0) L_1)))
 (let ((?x419 (* (- 1.0) S_4)))
 (let ((?x3018 (* (- 4.0) L_4)))
 (let ((?x2930 (* 4.0 A_4)))
 (let (($x27499 (<= (+ ?x2930 ?x3018 ?x419 ?x1320 ?x1321 ?x4556 ?x2074 ?x4457) 0.0)))
 (let (($x37954 (or $x96 (<= (+ ?x11409 (* (- 2.0) S_4) ?x274 A_1 ?x443 L_5) 0.0))))
 (let ((?x412 (* (- 1.0) S_3)))
 (let ((?x2048 (* (- 3.0) L_4)))
 (let ((?x1952 (* 3.0 A_4)))
 (let (($x27515 (<= (+ ?x1952 ?x2048 ?x1196 ?x1165 ?x1870 ?x412 ?x2904 ?x1766) 0.0)))
 (let (($x4930 (<= (+ ?x274 A_1 ?x443 (* 2.0 S_1) ?x2904 L_5) 0.0)))
 (let ((?x3874 (* (/ 3.0 2.0) L_5)))
 (let ((?x3565 (* 2.0 S_2)))
 (let ((?x3873 (* (- (/ 3.0 2.0)) A_5)))
 (let ((?x3872 (* (/ 3.0 2.0) A_1)))
 (let ((?x3870 (* (- (/ 3.0 2.0)) L_1)))
 (let (($x3876 (<= (+ ?x3870 ?x3872 ?x3873 ?x3565 ?x2904 ?x3874) 0.0)))
 (let (($x14494 (<= (+ A_4 ?x325 (* (- 1.0) A_0) L_0 ?x274 A_1 ?x443 L_5) 0.0)))
 (let (($x37928 (<= 0.0 (+ (* (- 1.0) A_4) L_4 (* (/ 3.0 2.0) S_3) (* (- (/ 1.0 2.0)) S_2)))))
 (let ((?x2882 (* (/ 1.0 2.0) L_5)))
 (let ((?x2895 (* (- (/ 1.0 2.0)) A_5)))
 (let ((?x2884 (* (/ 1.0 2.0) A_1)))
 (let ((?x2897 (* (- (/ 1.0 2.0)) L_1)))
 (let (($x24348 (<= (+ ?x11409 (* (- 1.0) A_4) L_4 ?x274 A_1 ?x443 ?x412 L_5) 0.0)))
 (let ((?x28262 (* (/ 5.0 2.0) L_5)))
 (let ((?x28248 (* (- (/ 5.0 2.0)) A_5)))
 (let ((?x28269 (* (/ 5.0 2.0) A_1)))
 (let ((?x19506 (* (- (/ 5.0 2.0)) L_1)))
 (let ((?x3550 (* 2.0 S_4)))
 (let (($x28249 (<= (+ ?x3550 ?x19506 ?x28269 ?x28248 ?x2904 ?x28262) 0.0)))
 (let (($x3866 (<= (+ ?x1218 ?x1258 ?x1463 (* 4.0 S_2) (* (- 4.0) S_1) ?x1571) 0.0)))
 (let (($x34928 (<= (+ ?x274 A_1 ?x443 L_5) (- 20.0))))
 (let (($x36231 (or $x96 $x34928 (<= (+ A_4 ?x325 ?x274 A_1 ?x443 ?x412 L_5) (- 10.0)))))
 (let (($x40803 (or $x96 $x34928 (<= (+ A_4 ?x325 ?x274 A_1 ?x443 ?x405 L_5) (- 5.0)))))
 (let ((?x1323 (* 4.0 L_2)))
 (let ((?x342 (* (- 1.0) L_5)))
 (let ((?x1322 (* (- 4.0) A_2)))
 (let ((?x917 (+ L_0 ?x274)))
 (let (($x557 (<= 0.0 ?x917)))
 (let ((?x2830 (* 5.0 L_5)))
 (let ((?x2876 (* (- 4.0) S_1)))
 (let ((?x3786 (* (- 5.0) A_5)))
 (let ((?x1335 (* 5.0 A_1)))
 (let ((?x1334 (* (- 5.0) L_1)))
 (let ((?x3070 (* 4.0 S_5)))
 (let (($x42739 (or $x96 (<= (+ ?x1196 ?x1165 ?x1870 (* 4.0 S_3) ?x2876 ?x1766) 0.0) $x14457)))
 (let ((?x4678 (* 2.0 S_0)))
 (let ((?x2845 (* (- 2.0) S_4)))
 (let ((?x25041 (+ ?x2845 (* (/ 3.0 2.0) L_1) (* (- (/ 3.0 2.0)) A_1) (* (/ 3.0 2.0) A_5) ?x4678 (* (- (/ 3.0 2.0)) L_5))))
 (let (($x56 (= L_1 L_0)))
 (let ((?x432 (* (- 1.0) A_1)))
 (let (($x3439 (<= (+ ?x325 (* (- (/ 4.0 3.0)) S_4) L_1 ?x432 A_5 (* (/ 4.0 3.0) S_0)) 0.0)))
 (let (($x949 (not $x96)))
 (let ((?x1768 (* (- 2.0) L_5)))
 (let ((?x2857 (* (- 4.0) S_3)))
 (let ((?x1535 (* 2.0 A_5)))
 (let ((?x1209 (* (- 2.0) A_1)))
 (let ((?x1178 (* 2.0 L_1)))
 (let ((?x1070 (* (/ 3.0 4.0) L_5)))
 (let ((?x3859 (* (- (/ 3.0 4.0)) A_5)))
 (let ((?x3848 (* (/ 3.0 4.0) A_1)))
 (let ((?x3850 (* (- (/ 3.0 4.0)) L_1)))
 (let ((?x2875 (* (- (/ 1.0 2.0)) L_5)))
 (let ((?x2870 (* (/ 1.0 2.0) A_5)))
 (let ((?x2873 (* (- (/ 1.0 2.0)) A_1)))
 (let ((?x2868 (* (/ 1.0 2.0) L_1)))
 (let ((?x25078 (+ (* (- (/ 1.0 2.0)) A_4) (* (/ 1.0 2.0) L_4) ?x419 ?x2868 ?x2873 ?x2870 (* (/ 3.0 2.0) S_2) ?x2875)))
 (let (($x16865 (<= (+ S_5 (* (- 1.0) A_4) L_4 (* (- (/ 1.0 2.0)) S_3) (* (/ 1.0 2.0) S_0)) 0.0)))
 (let ((?x2927 (* 4.0 L_0)))
 (let ((?x2926 (* (- 4.0) A_0)))
 (let ((?x2878 (* 4.0 S_4)))
 (let ((?x24386 (+ (* (/ 1.0 4.0) L_1) (* (- (/ 1.0 4.0)) A_1) (* (/ 1.0 4.0) A_5) ?x405 S_0 (* (- (/ 1.0 4.0)) L_5))))
 (let (($x36847 (<= 0.0 (+ (* (- 2.0) A_4) (* 2.0 L_4) (* 3.0 S_3) ?x405))))
 (let ((?x1923 (* (/ 2.0 3.0) L_5)))
 (let ((?x8332 (* (/ 1.0 3.0) S_3)))
 (let ((?x1919 (* (- (/ 2.0 3.0)) A_5)))
 (let ((?x24227 (* (/ 2.0 3.0) A_1)))
 (let ((?x4354 (* (- (/ 2.0 3.0)) L_1)))
 (let ((?x8133 (* (- (/ 2.0 3.0)) L_4)))
 (let ((?x14784 (* (/ 2.0 3.0) A_4)))
 (let (($x42277 (or $x96 (<= (+ ?x14784 ?x8133 ?x4354 ?x24227 ?x1919 ?x8332 ?x405 ?x1923) 0.0) (not $x36847))))
 (let (($x71405 (or $x96 (<= (+ ?x2926 ?x2927 ?x274 A_1 ?x443 (* 4.0 S_1) L_5) 0.0) $x14494)))
 (let ((?x13385 (* 2.0 L_4)))
 (let ((?x10572 (* (- 2.0) A_4)))
 (let ((?x2099 (* 3.0 S_5)))
 (let (($x41237 (or $x96 (<= (+ ?x2926 ?x2927 ?x1196 ?x1165 ?x1870 (* 4.0 S_3) ?x1766) 0.0) $x14494)))
 (let ((?x2867 (* 4.0 S_2)))
 (let (($x34965 (<= 0.0 (+ (* (- 4.0) A_4) (* 4.0 L_4) ?x1178 ?x1209 ?x1535 ?x2867 ?x1768))))
 (let (($x37086 (not (<= 0.0 (+ (* (- 1.0) A_4) L_4 (* (- 1.0) A_0) L_0 ?x3565)))))
 (let ((?x4952 (* 2.0 S_1)))
 (let ((?x440 (* (- 1.0) A_4)))
 (let (($x42100 (or $x56 (<= (+ ?x440 L_4 L_1 ?x432 A_5 ?x412 ?x4952 ?x342) 0.0))))
 (let (($x70417 (or $x56 (<= (+ ?x10572 ?x13385 ?x419 ?x1178 ?x1209 ?x1535 (* 3.0 S_1) ?x1768) 0.0))))
 (let (($x41150 (or $x96 $x34928 (<= (+ A_4 ?x325 ?x419 ?x274 A_1 ?x443 L_5) (- 15.0)))))
 (let ((?x1915 (* 3.0 S_0)))
 (let ((?x1910 (* (- 3.0) S_2)))
 (let ((?x434 (* (- 1.0) A_2)))
 (let (($x66 (= L_2 L_1)))
 (let (($x1925 (<= (+ ?x1919 (* (/ 2.0 3.0) A_2) S_1 ?x1350 (* (- (/ 2.0 3.0)) L_2) ?x1923) 0.0)))
 (let ((?x1543 (* (- 3.0) L_5)))
 (let ((?x1198 (* 3.0 L_2)))
 (let ((?x1252 (* (- 3.0) A_2)))
 (let ((?x1660 (* 3.0 A_5)))
 (let ((?x1852 (* (- 3.0) S_4)))
 (let ((?x1343 (* (- 5.0) L_2)))
 (let ((?x1758 (* (- 3.0) S_1)))
 (let ((?x1342 (* 5.0 A_2)))
 (let (($x4181 (<= (+ ?x2099 ?x1852 ?x1463 (* 2.0 A_2) (* (- 2.0) L_2) ?x1571) 0.0)))
 (let (($x2752 (<= (+ S_5 ?x1463 (* 2.0 A_2) ?x1350 (* (- 2.0) L_2) ?x1571) 0.0)))
 (let ((?x1315 (* (- 3.0) L_2)))
 (let ((?x1717 (* 3.0 S_3)))
 (let ((?x1314 (* 3.0 A_2)))
 (let ((?x1091 (* (- 2.0) L_2)))
 (let ((?x3520 (* 3.0 S_2)))
 (let ((?x1208 (* 2.0 A_2)))
 (let ((?x8836 (+ (* (/ 2.0 3.0) A_5) (* (- (/ 2.0 3.0)) A_2) ?x412 S_0 (* (/ 2.0 3.0) L_2) (* (- (/ 2.0 3.0)) L_5))))
 (let (($x487 (not (<= 0.0 (+ L_4 ?x342)))))
 (let (($x36635 (or $x56 $x487 (<= (+ ?x325 L_1 ?x432 A_5 (* (- 2.0) S_3) ?x4678) 0.0))))
 (let (($x4419 (<= (+ ?x2099 ?x4556 (* 4.0 A_2) ?x1910 (* (- 4.0) L_2) ?x4457) 0.0)))
 (let ((?x1883 (* (/ 4.0 3.0) L_5)))
 (let ((?x1893 (* (- (/ 4.0 3.0)) L_2)))
 (let ((?x1885 (* (/ 4.0 3.0) A_2)))
 (let ((?x1887 (* (- (/ 4.0 3.0)) A_5)))
 (let (($x2216 (<= (+ (* (- 3.0) A_0) (* 3.0 L_0) ?x1870 ?x1314 ?x1717 ?x1315 ?x1766) 0.0)))
 (let ((?x1115 (* 2.0 L_2)))
 (let ((?x1706 (* 3.0 S_1)))
 (let ((?x1214 (* (- 2.0) A_2)))
 (let (($x73027 (or $x96 (<= (+ ?x443 A_2 S_2 ?x1350 (* (- 1.0) L_2) L_5) 0.0))))
 (let (($x16324 (<= (+ (* (- 3.0) A_0) (* 3.0 L_0) ?x1463 ?x1208 ?x3520 ?x1091 ?x1571) 0.0)))
 (let (($x4718 (<= (+ ?x2099 (* (- 3.0) A_0) (* 3.0 L_0) ?x3786 ?x1342 ?x1343 ?x2830) 0.0)))
 (let ((?x291 (* (- 1.0) L_2)))
 (let ((?x1949 (* 3.0 L_0)))
 (let ((?x1948 (* (- 3.0) A_0)))
 (let (($x943 (not $x56)))
 (let (($x40612 (or $x66 $x943 (<= (+ (* (- 3.0) L_0) ?x1165 A_5 ?x1322 ?x1323 ?x342) 0.0))))
 (let ((?x1902 (+ (* (/ 1.0 3.0) A_5) (* (- (/ 1.0 3.0)) A_2) ?x412 S_1 (* (/ 1.0 3.0) L_2) (* (- (/ 1.0 3.0)) L_5))))
 (let (($x42773 (or $x56 (<= (+ L_1 ?x432 A_5 ?x2857 (* 4.0 S_1) ?x342) 0.0))))
 (let (($x1339 (<= (+ S_5 ?x1334 ?x1335 (* (- 5.0) A_2) ?x399 (* 5.0 L_2)) 0.0)))
 (let ((?x1351 (* 6.0 L_2)))
 (let ((?x1349 (* (- 6.0) A_2)))
 (let ((?x1348 (* 6.0 A_1)))
 (let ((?x1347 (* (- 6.0) L_1)))
 (let ((?x1337 (* 5.0 L_2)))
 (let ((?x1336 (* (- 5.0) A_2)))
 (let ((?x1376 (* (- 1.0) A_0)))
 (let (($x76 (= L_3 L_2)))
 (let ((?x1329 (* (- 4.0) L_2)))
 (let ((?x1328 (* 4.0 A_2)))
 (let ((?x1313 (* (- 3.0) A_1)))
 (let ((?x1312 (* 3.0 L_1)))
 (let (($x86 (= L_4 L_3)))
 (let (($x128 (>= S_1 S_0)))
 (let (($x131 (>= S_2 S_1)))
 (let (($x134 (>= S_3 S_2)))
 (let (($x137 (>= S_4 S_3)))
 (let (($x143 (>= A_2 A_1)))
 (let (($x144 (>= A_3 A_2)))
 (let (($x145 (>= A_4 A_3)))
 (and (<= (+ A_4 ?x325) S_5) (<= (+ A_0 (* (- 1.0) L_0)) S_4) (not (<= (+ A_1 ?x274) S_4)) $x145 $x144 $x143 $x137 $x134 $x131 $x128 $x86 (or $x66 (not (<= 0.0 (+ L_1 ?x291)))) (or $x56 (not $x557)) (or $x66 (<= (+ ?x274 A_1 ?x434 L_2) (- 5.0))) (or $x66 $x96 $x557 (= (+ ?x1312 ?x1313 ?x443 ?x1328 ?x1329 L_5) 0.0)) (or $x66 (<= (+ ?x1218 ?x1258 ?x1214 S_2 ?x399 ?x1115) 0.0)) (or $x66 (<= (+ ?x1376 L_0 ?x1218 ?x1258 ?x1214 S_2 ?x1115) 0.0)) (or $x66 (<= (+ ?x1196 ?x1165 ?x1252 S_2 ?x1350 ?x1198) 0.0)) (or $x66 (<= (+ ?x1218 ?x1258 ?x1214 S_3 ?x405 ?x1115) 0.0)) (or $x66 (<= (+ ?x1376 L_0 ?x1196 ?x1165 ?x1252 S_3 ?x1198) 0.0)) (or $x66 (<= (+ ?x1320 ?x1321 ?x1322 S_3 ?x1350 ?x1323) 0.0)) (or $x66 (<= (+ ?x1196 ?x1165 ?x1252 S_3 ?x399 ?x1198) 0.0)) (or $x557 (<= (+ ?x419 L_1 ?x432 A_2 S_2 ?x291) 0.0)) (or $x56 (<= (+ L_1 ?x432 A_2 ?x405 S_0 ?x291) 0.0)) (or $x557 (<= (+ ?x419 ?x1312 ?x1313 ?x1314 S_0 ?x1315) 0.0)) (or $x66 (<= 0.0 (+ L_4 ?x1312 ?x1313 ?x443 ?x1328 ?x1329)) $x949) (or $x66 (<= (+ ?x1376 L_0 ?x274 A_1 ?x434 S_1 L_2) 0.0)) (or $x96 $x487) (<= (+ ?x412 S_0) (- 10.0)) (not (<= 0.0 (+ S_4 (* (- 1.0) A_3) L_3))) $x76 (<= (+ (* (- (/ 1.0 3.0)) S_4) (* (/ 1.0 3.0) S_0)) (- 5.0)) (<= (+ (* (- (/ 1.0 2.0)) S_4) (* (/ 1.0 2.0) S_1)) (- 5.0)) (<= (+ (* (- (/ 1.0 2.0)) S_4) ?x1376 L_0 (* (/ 3.0 2.0) S_1)) 0.0) (<= (+ S_5 ?x2845 S_1) 0.0) (or $x66 (<= (+ S_5 ?x419 ?x1218 ?x1258 ?x1214 ?x1115) 0.0)) (or $x56 (<= (+ ?x419 ?x1178 ?x1209 ?x1208 S_1 ?x1091) 0.0)) (or $x66 (<= (+ ?x1218 ?x1258 ?x1214 S_1 ?x1350 ?x1115) 0.0)) (or $x66 (<= (+ S_5 ?x1376 L_0 ?x1334 ?x1335 ?x1336 ?x1337) 0.0)) (or $x66 (<= (+ S_5 ?x1347 ?x1348 ?x1349 ?x1350 ?x1351) 0.0)) (<= (+ ?x2845 ?x1376 L_0 ?x3520) 0.0) (or $x56 (<= (+ L_1 ?x432 A_2 ?x412 S_1 ?x291) 0.0)) (or $x56 (<= (+ ?x1178 ?x1209 ?x1208 ?x412 S_0 ?x1091) 0.0)) (<= (+ ?x419 S_2) (- 5.0)) (or $x66 $x1339) (or $x66 (<= (+ S_5 ?x1320 ?x1321 ?x1322 ?x405 ?x1323) 0.0)) (<= (+ S_5 ?x1852 ?x3565) 0.0) (<= (+ ?x1852 ?x2867 ?x1350) 0.0) (or $x66 (<= (+ S_5 ?x1196 ?x1165 ?x1252 ?x412 ?x1198) 0.0)) (<= (+ ?x419 ?x4952 ?x1350) 0.0) (<= (+ ?x1376 L_0 ?x412 ?x4952) 0.0) (<= (+ (* (- 2.0) S_3) ?x1706 ?x1350) 0.0) (<= (+ ?x412 S_1) (- 5.0)) (<= (+ S_5 ?x2857 ?x1706) 0.0) (or $x56 (<= (+ ?x2845 L_1 ?x432 A_5 ?x4952 ?x342) 0.0)) $x42773 (or $x66 (<= ?x1902 0.0)) $x40612 (or $x56 (<= (+ ?x2845 ?x2868 ?x2873 ?x2870 ?x3565 ?x2875) 0.0)) (<= (+ ?x2845 ?x3520 ?x399) 0.0) (or $x96 (<= (+ S_5 ?x443 A_2 ?x412 ?x291 L_5) 0.0)) (or $x96 (<= (+ ?x1948 ?x1949 ?x443 A_2 ?x1706 ?x291 L_5) 0.0)) (or $x96 $x4718) (or $x96 $x16324) $x73027 (or $x66 (<= (+ ?x1852 ?x1535 ?x1214 ?x1706 ?x1115 ?x1768) 0.0)) (or $x96 $x2216) (or $x66 (<= (+ ?x1852 A_5 ?x434 ?x3520 L_2 ?x342) 0.0)) (or $x96 (<= (+ ?x1887 ?x1885 S_3 ?x1350 ?x1893 ?x1883) 0.0)) (or $x96 (<= (+ S_5 ?x274 A_1 ?x443 ?x405 L_5) 0.0)) (or $x96 (<= (+ ?x1463 ?x1208 ?x1717 ?x1910 ?x1091 ?x1571) 0.0)) (or $x96 $x4419) (<= (+ ?x8332 ?x405 (* (/ 2.0 3.0) S_0)) 0.0) $x36635 (or $x66 (<= ?x8836 0.0)) (or $x96 (<= (+ ?x1463 ?x1208 ?x3520 ?x1758 ?x1091 ?x1571) 0.0)) (or $x96 (<= (+ ?x1870 ?x1314 ?x1717 ?x1758 ?x1315 ?x1766) 0.0)) (<= (+ (* (/ 3.0 5.0) S_5) ?x419 (* (/ 2.0 5.0) S_0)) 0.0) (<= (+ S_4 (* (- 4.0) S_2) ?x1915) 0.0) (<= (+ S_4 (* (- 2.0) S_3) S_0) 0.0) (<= (+ (* (/ 2.0 5.0) S_5) ?x412 (* (/ 3.0 5.0) S_0)) 0.0) (<= (+ S_5 ?x440 L_4 (* (- (/ 1.0 3.0)) S_4) (* (/ 1.0 3.0) S_0)) 0.0) (<= (+ (* (/ 1.0 5.0) S_5) ?x405 (* (/ 4.0 5.0) S_0)) 0.0) (or $x96 $x2752) (or $x96 $x4181) (or $x96 (<= (+ ?x2099 ?x3786 ?x1342 ?x1758 ?x1343 ?x2830) 0.0)) (or $x66 (<= (+ ?x1852 ?x1660 ?x1252 ?x1915 ?x1198 ?x1543) 0.0)) (or $x96 $x1925) (or $x66 (<= (+ A_5 ?x434 ?x1910 ?x1915 L_2 ?x342) 0.0)) (or $x96 (<= (+ ?x443 A_2 ?x291 L_5) (- 15.0))) $x41150 (or $x56 (<= (+ ?x440 L_4 L_1 ?x432 A_5 S_0 ?x342) 0.0)) $x70417 $x42100 (<= (+ (* (/ 1.0 3.0) S_4) ?x412 (* (/ 2.0 3.0) S_1)) 0.0) (or $x96 $x14494 $x37086) (or $x96 (<= (+ ?x2926 ?x2927 ?x1218 ?x1258 ?x1463 ?x2867 ?x1571) 0.0) $x34965) $x41237 (or $x96 (<= (+ ?x2099 ?x10572 ?x13385 ?x419 ?x274 A_1 ?x443 L_5) 0.0)) (or $x96 (<= (+ ?x3070 ?x2926 ?x2927 ?x1334 ?x1335 ?x3786 ?x2830) 0.0) $x14494) (or $x96 $x14494 $x34928) $x71405 $x42277 (or $x56 (<= ?x24386 0.0)) (<= (+ ?x11409 ?x10572 ?x13385 ?x419 S_1) 0.0) (or $x96 (<= (+ ?x2878 ?x1320 ?x1321 ?x4556 ?x2876 ?x4457) 0.0)) (or $x96 (<= (+ ?x2878 ?x2926 ?x2927 ?x1320 ?x1321 ?x4556 ?x4457) 0.0)) (or $x96 (<= (+ ?x2878 ?x1218 ?x1258 ?x1463 ?x2857 ?x1571) 0.0)) $x16865 (<= (+ S_5 ?x440 L_4 ?x412 S_1) 0.0) (or $x56 (<= ?x25078 0.0)) (or $x96 $x14457 $x34928) (<= (+ S_5 ?x440 L_4 ?x419 S_2) 0.0) (or $x96 (<= (+ ?x3070 ?x1196 ?x1165 ?x1870 ?x2857 ?x1766) 0.0)) (or $x96 (<= (+ S_4 ?x3850 ?x3848 ?x3859 ?x405 ?x1070) 0.0)) (or $x56 (<= (+ ?x1178 ?x1209 ?x1535 ?x2857 (* 4.0 S_0) ?x1768) 0.0)) (or $x56 $x949 $x3439) (or $x56 (<= ?x25041 0.0)) $x42739 (or $x96 (<= (+ ?x3070 ?x1334 ?x1335 ?x3786 ?x2876 ?x2830) 0.0) $x14457) (or $x96 $x557 (<= 0.0 (+ ?x1196 ?x1165 A_5 ?x1322 ?x342 ?x1323))) $x40803 $x36231 (or $x96 $x3866 $x14457) (or $x96 $x27499 $x34928) (or $x96 $x27515 $x34928) (or $x96 $x14494 $x28249) (or $x96 $x27499 $x28249) (or $x96 $x8424 $x14494) (or $x96 $x4930 $x14494) (or $x96 $x4930 $x27499) (or $x96 $x3876 $x27515) (or $x96 $x3876 $x14457) (or $x96 $x3876 $x14494) (or $x96 $x27494 $x28249) (or $x96 $x14457 $x28249) (or $x96 $x27515 $x28249) (or $x96 $x24348) (or $x96 (<= (+ ?x2897 ?x2884 ?x2895 S_3 ?x405 ?x2882) 0.0) $x37928) (or $x96 $x2906 $x14494) (or $x96 $x2906 $x27494) (or $x96 $x3876 $x27499) (or $x96 $x2906 $x27499) (or $x96 $x4930 $x27494) (or $x96 $x4930 $x27515) (or $x96 $x8424 $x27515) $x37954 (or $x96 $x27494 $x34928) (or $x96 $x8424 $x14457) (or $x96 $x8424 $x27499) (or $x96 $x2906 $x14457) (or $x96 $x8424 $x27494) $x39 (<= (+ ?x1376 L_0 S_0) 0.0) (<= (+ ?x405 S_0) (- 5.0)) (<= (+ S_5 ?x443 L_5) 0.0) (<= (+ S_5 ?x440 L_4 ?x405 S_0) 0.0)))))))))))))))))))))))))))))))))))))))))))))))))))))))))))))))))))))))))))))))))))))))))))))))))))))))))))))))))))))))))))))))))))))))))))))))))))))))))))))))))))))))))))))))))))))))))))))
(check-sat)
